% Generated by MiniZinc 2.9.3
% Solver library: /home/icwmmarijnisse/Pumpkin/minizinc/lib
% Command line invocation: minizinc --compile --fzn ./instance.fzn --ozn ./instance.ozn --solver pumpkin ../../../../benchmarks/models/rcpsp/rcpsp_smaller.mzn ../../../../benchmarks/models/rcpsp/J30_29_3.dzn 

predicate pumpkin_cumulative(array [int] of var int: s,array [int] of int: d,array [int] of int: r,int: b);
array [1..2] of int: X_INTRODUCED_49_ = [1,-1];
array [1..14] of int: X_INTRODUCED_57_ = [1,1,8,1,3,10,5,5,10,2,10,5,2,5];
array [1..14] of int: X_INTRODUCED_58_ = [6,6,9,6,5,1,9,8,3,9,3,3,3,7];
array [1..14] of int: X_INTRODUCED_60_ = [8,1,8,7,8,5,1,1,6,7,8,8,3,5];
array [1..14] of int: X_INTRODUCED_61_ = [10,5,8,7,5,2,9,9,1,7,4,7,9,6];
array [1..14] of int: X_INTRODUCED_62_ = [9,4,3,7,2,10,9,4,2,6,3,1,10,7];
var 0..157: X_INTRODUCED_16_;
var 0..157: X_INTRODUCED_17_;
var 0..157: X_INTRODUCED_18_;
var 0..157: X_INTRODUCED_19_;
var 0..157: X_INTRODUCED_20_;
var 0..157: X_INTRODUCED_21_;
var 0..157: X_INTRODUCED_22_;
var 0..157: X_INTRODUCED_23_;
var 0..157: X_INTRODUCED_24_;
var 0..157: X_INTRODUCED_25_;
var 0..157: X_INTRODUCED_26_;
var 0..157: X_INTRODUCED_27_;
var 0..157: X_INTRODUCED_28_;
var 0..157: X_INTRODUCED_29_;
var 0..157: X_INTRODUCED_30_;
var 0..157: X_INTRODUCED_31_;
var 0..157: X_INTRODUCED_32_;
var 0..157: X_INTRODUCED_33_;
var 0..157: X_INTRODUCED_34_;
var 0..157: X_INTRODUCED_35_;
var 0..157: X_INTRODUCED_36_;
var 0..157: X_INTRODUCED_37_;
var 0..157: X_INTRODUCED_38_;
var 0..157: X_INTRODUCED_39_;
var 0..157: X_INTRODUCED_40_;
var 0..157: X_INTRODUCED_41_;
var 0..157: X_INTRODUCED_42_;
var 0..157: X_INTRODUCED_43_;
var 0..157: X_INTRODUCED_44_;
var 0..157: X_INTRODUCED_45_;
var 0..158: Objective:: output_var;
array [1..30] of var int: Start:: output_array([1..30]) = [X_INTRODUCED_16_,X_INTRODUCED_17_,X_INTRODUCED_18_,X_INTRODUCED_19_,X_INTRODUCED_20_,X_INTRODUCED_21_,X_INTRODUCED_22_,X_INTRODUCED_23_,X_INTRODUCED_24_,X_INTRODUCED_25_,X_INTRODUCED_26_,X_INTRODUCED_27_,X_INTRODUCED_28_,X_INTRODUCED_29_,X_INTRODUCED_30_,X_INTRODUCED_31_,X_INTRODUCED_32_,X_INTRODUCED_33_,X_INTRODUCED_34_,X_INTRODUCED_35_,X_INTRODUCED_36_,X_INTRODUCED_37_,X_INTRODUCED_38_,X_INTRODUCED_39_,X_INTRODUCED_40_,X_INTRODUCED_41_,X_INTRODUCED_42_,X_INTRODUCED_43_,X_INTRODUCED_44_,X_INTRODUCED_45_];
array [1..14] of var int: X_INTRODUCED_59_ ::var_is_introduced  = [X_INTRODUCED_16_,X_INTRODUCED_17_,X_INTRODUCED_18_,X_INTRODUCED_19_,X_INTRODUCED_20_,X_INTRODUCED_21_,X_INTRODUCED_22_,X_INTRODUCED_23_,X_INTRODUCED_24_,X_INTRODUCED_25_,X_INTRODUCED_26_,X_INTRODUCED_27_,X_INTRODUCED_28_,X_INTRODUCED_29_];
array [1..15] of var int: X_INTRODUCED_63_ ::var_is_introduced  = [X_INTRODUCED_16_,X_INTRODUCED_17_,X_INTRODUCED_18_,X_INTRODUCED_19_,X_INTRODUCED_20_,X_INTRODUCED_21_,X_INTRODUCED_22_,X_INTRODUCED_23_,X_INTRODUCED_24_,X_INTRODUCED_25_,X_INTRODUCED_26_,X_INTRODUCED_27_,X_INTRODUCED_28_,X_INTRODUCED_29_,Objective];
constraint int_lin_le(X_INTRODUCED_49_,[X_INTRODUCED_16_,X_INTRODUCED_19_],-6);
constraint int_lin_le(X_INTRODUCED_49_,[X_INTRODUCED_16_,X_INTRODUCED_22_],-6);
constraint int_lin_le(X_INTRODUCED_49_,[X_INTRODUCED_16_,X_INTRODUCED_23_],-6);
constraint int_lin_le(X_INTRODUCED_49_,[X_INTRODUCED_17_,X_INTRODUCED_20_],-6);
constraint int_lin_le(X_INTRODUCED_49_,[X_INTRODUCED_17_,X_INTRODUCED_25_],-6);
constraint int_lin_le(X_INTRODUCED_49_,[X_INTRODUCED_19_,X_INTRODUCED_21_],-6);
constraint int_lin_le(X_INTRODUCED_49_,[X_INTRODUCED_20_,X_INTRODUCED_24_],-5);
constraint int_lin_le(X_INTRODUCED_49_,[X_INTRODUCED_22_,X_INTRODUCED_27_],-9);
constraint int_lin_le(X_INTRODUCED_49_,[X_INTRODUCED_23_,X_INTRODUCED_27_],-8);
constraint int_lin_le(X_INTRODUCED_49_,[X_INTRODUCED_23_,X_INTRODUCED_28_],-8);
constraint int_lin_le(X_INTRODUCED_49_,[X_INTRODUCED_24_,X_INTRODUCED_26_],-3);
constraint int_lin_le(X_INTRODUCED_49_,[X_INTRODUCED_26_,X_INTRODUCED_27_],-3);
constraint int_lin_le(X_INTRODUCED_49_,[X_INTRODUCED_26_,X_INTRODUCED_28_],-3);
constraint int_lin_le(X_INTRODUCED_49_,[X_INTRODUCED_26_,X_INTRODUCED_29_],-3);
constraint pumpkin_cumulative(X_INTRODUCED_59_,X_INTRODUCED_58_,X_INTRODUCED_57_,15);
constraint pumpkin_cumulative(X_INTRODUCED_59_,X_INTRODUCED_58_,X_INTRODUCED_60_,17);
constraint pumpkin_cumulative(X_INTRODUCED_59_,X_INTRODUCED_58_,X_INTRODUCED_61_,17);
constraint pumpkin_cumulative(X_INTRODUCED_59_,X_INTRODUCED_58_,X_INTRODUCED_62_,14);
solve :: int_search(X_INTRODUCED_63_,smallest,indomain_min,complete) minimize Objective;
